\ Model sspwp
\ LP format - for model browsing. Use MPS format to capture full model detail.
Minimize
  h_max + 4 pxf[1] + 4 pxf[2] + 4 pxf[3]
Subject To
 c012: 100000 d[1,2] + y[1] - y[2] <= 99996
 c013: 100000 d[1,3] + y[1] - y[3] <= 99996
 c021: 100000 d[2,1] - y[1] + y[2] <= 99996
 c023: 100000 d[2,3] + y[2] - y[3] <= 99996
 c031: 100000 d[3,1] - y[1] + y[3] <= 99996
 c032: 100000 d[3,2] - y[2] + y[3] <= 99996
 c112: 100000 l[1,2] + x[1] - x[2] <= 99998
 c113: 100000 l[1,3] + x[1] - x[3] <= 99998
 c121: 100000 l[2,1] - x[1] + x[2] <= 99998
 c123: 100000 l[2,3] + x[2] - x[3] <= 99998
 c131: 100000 l[3,1] - x[1] + x[3] <= 99998
 c132: 100000 l[3,2] - x[2] + x[3] <= 99998
 c212: l[1,2] + l[2,1] <= 1
 c312: d[1,2] + d[2,1] <= 1
 c412: d[1,2] + d[2,1] + l[1,2] + l[2,1] >= 1
 c213: l[1,3] + l[3,1] <= 1
 c313: d[1,3] + d[3,1] <= 1
 c413: d[1,3] + d[3,1] + l[1,3] + l[3,1] >= 1
 c223: l[2,3] + l[3,2] <= 1
 c323: d[2,3] + d[3,2] <= 1
 c423: d[2,3] + d[3,2] + l[2,3] + l[3,2] >= 1
 x01: x[1] <= 8
 x11: x[1] >= 0
 y01: y[1] >= 0
 px01: - x[1] + px[1] = -1
 x01: - y[1] + yh[1] = 4
 x02: x[2] <= 8
 x12: x[2] >= 0
 y02: y[2] >= 0
 px02: - x[2] + px[2] = -1
 x02: - y[2] + yh[2] = 4
 x03: x[3] <= 8
 x13: x[3] >= 0
 y03: y[3] >= 0
 px03: - x[3] + px[3] = -1
 x03: - y[3] + yh[3] = 4
Bounds
Binaries
 d[1,2] d[1,3] d[2,1] d[2,3] d[3,1] d[3,2] l[1,2] l[1,3] l[2,1] l[2,3]
 l[3,1] l[3,2]
General Constraints
 max_height: h_max = MAX ( yh[1] , yh[2] , yh[3] )
 abspx1: pxf[1] = ABS ( px[1] )
 abspx2: pxf[2] = ABS ( px[2] )
 abspx3: pxf[3] = ABS ( px[3] )
End
